c Maximum weighted independent set instances generated from exactcolors.
c scalef: 21474836 .
c An independent set of value > 21474836 defines an improving stable sets for coloring.
p edge 100 166
e 1 3
e 1 4
e 1 9
e 1 23
e 2 6
e 2 8
e 2 11
e 2 32
e 3 4
e 3 5
e 4 21
e 4 22
e 5 7
e 5 45
e 5 46
e 6 18
e 6 19
e 6 44
e 7 12
e 7 13
e 7 17
e 8 9
e 8 10
e 9 10
e 10 24
e 10 25
e 11 15
e 11 41
e 11 62
e 12 13
e 12 26
e 13 64
e 13 65
e 14 15
e 14 16
e 14 53
e 14 59
e 15 16
e 16 43
e 16 47
e 17 19
e 17 30
e 17 31
e 18 29
e 18 50
e 19 51
e 19 52
e 20 21
e 20 22
e 20 33
e 20 34
e 21 22
e 23 24
e 23 25
e 24 25
e 26 27
e 26 28
e 27 28
e 27 54
e 27 55
e 28 36
e 28 37
e 29 30
e 29 31
e 30 31
e 32 33
e 32 34
e 33 34
e 35 36
e 35 37
e 35 60
e 35 61
e 36 71
e 37 39
e 37 40
e 38 39
e 38 40
e 38 73
e 38 95
e 39 40
e 41 42
e 41 78
e 41 83
e 42 43
e 42 48
e 42 49
e 43 77
e 44 46
e 44 87
e 44 88
e 45 46
e 45 86
e 47 48
e 47 57
e 47 58
e 48 49
e 49 99
e 49 100
e 50 52
e 50 93
e 50 94
e 51 52
e 51 92
e 53 54
e 53 55
e 54 55
e 56 58
e 56 69
e 56 70
e 56 98
e 57 58
e 57 68
e 59 60
e 59 61
e 60 75
e 60 76
e 61 74
e 62 63
e 62 64
e 63 64
e 63 66
e 63 67
e 65 66
e 65 67
e 66 67
e 68 69
e 68 70
e 69 70
e 71 72
e 71 73
e 72 73
e 72 96
e 72 97
e 74 75
e 74 76
e 75 76
e 77 78
e 77 79
e 78 90
e 78 91
e 79 81
e 79 82
e 79 89
e 80 81
e 80 82
e 80 84
e 80 85
e 81 82
e 83 84
e 83 85
e 84 85
e 86 87
e 86 88
e 87 88
e 89 90
e 89 91
e 90 91
e 92 93
e 92 94
e 93 94
e 95 96
e 95 97
e 96 97
e 98 99
e 98 100
e 99 100
n 1 650752
n 2 650752
n 3 650752
n 4 650752
n 5 650752
n 6 650752
n 7 650752
n 8 650752
n 9 650752
n 10 650752
n 11 650752
n 12 650752
n 13 650752
n 14 650752
n 15 650752
n 16 650752
n 17 650752
n 18 650752
n 19 650752
n 20 650752
n 21 650752
n 22 650752
n 23 650752
n 24 650752
n 25 650752
n 26 650752
n 27 650752
n 28 650752
n 29 650752
n 30 650752
n 31 650752
n 32 650752
n 33 650752
n 34 650752
n 35 650752
n 36 650752
n 37 650752
n 38 650752
n 39 650752
n 40 650752
n 41 650752
n 42 650752
n 43 650752
n 44 650752
n 45 650752
n 46 650752
n 47 650752
n 48 650752
n 49 650752
n 50 650752
n 51 650752
n 52 650752
n 53 650752
n 54 650752
n 55 650752
n 56 650752
n 57 650752
n 58 650752
n 59 650752
n 60 650752
n 61 650752
n 62 650752
n 63 650752
n 64 650752
n 65 650752
n 66 650752
n 67 650752
n 68 650752
n 69 650752
n 70 650752
n 71 650752
n 72 650752
n 73 650752
n 74 650752
n 75 650752
n 76 650752
n 77 650752
n 78 650752
n 79 650752
n 80 650752
n 81 650752
n 82 650752
n 83 650752
n 84 650752
n 85 650752
n 86 650752
n 87 650752
n 88 650752
n 89 650752
n 90 650752
n 91 650752
n 92 650752
n 93 650752
n 94 650752
n 95 650752
n 96 650752
n 97 650752
n 98 650752
n 99 650752
n 100 650752
